NAME: GRASP_41_14
TYPE: TSP
COMMENT: line_41_14
DIMENSION: 41
EDGE_WEIGHT_TYPE: EUC_2D
NODE_COORD_SECTION
1 2855 2254
2 566 220
3 740 1343
4 539 2463
5 1082 1285
6 2481 1965
7 1582 4537
8 2227 3137
9 4810 2366
10 2992 406
11 1092 1110
12 4412 2622
13 603 823
14 3398 494
15 858 147
16 1126 4572
17 2649 3217
18 1098 1087
19 2056 1743
20 2803 2199
21 1847 565
22 3025 4270
23 2515 3206
24 1451 4677
25 383 2672
26 1184 3832
27 1572 1004
28 1238 1214
29 3643 894
30 927 2111
31 3712 2681
32 1412 2309
33 1016 1186
34 4240 585
35 1744 862
36 2710 2245
37 1190 1789
38 4210 175
39 2517 1211
40 877 305
41 4484 2621
